
Gurobi 9.1.1 (win64) logging started Sun Mar 13 21:05:38 2022

Changed value of parameter LogFile to ./Log/Pattern_Appro_solver_1500_order_75_batch.log
   Prev:   Default: 
Gurobi Optimizer version 9.1.1 build v9.1.1rc0 (win64)
Thread count: 6 physical cores, 12 logical processors, using up to 12 threads
Optimize a model with 3935 rows, 23100 columns and 81375 nonzeros
Model fingerprint: 0x9f1b2f74
Variable types: 0 continuous, 23100 integer (17850 binary)
Coefficient statistics:
  Matrix range     [1e+00, 2e+01]
  Objective range  [1e+00, 4e+01]
  Bounds range     [1e+00, 1e+02]
  RHS range        [1e+00, 1e+02]
Found heuristic solution: objective 7754.0000000
Presolve removed 251 rows and 1056 columns
Presolve time: 0.11s
Presolved: 3684 rows, 22044 columns, 76606 nonzeros
Variable types: 0 continuous, 22044 integer (17007 binary)

Root relaxation: objective 1.989787e+03, 7221 iterations, 0.18 seconds

    Nodes    |    Current Node    |     Objective Bounds      |     Work
 Expl Unexpl |  Obj  Depth IntInf | Incumbent    BestBd   Gap | It/Node Time

     0     0 1989.78672    0  283 7754.00000 1989.78672  74.3%     -    0s
H    0     0                    4606.0000000 1989.78672  56.8%     -    0s
H    0     0                    4598.0000000 1989.78672  56.7%     -    0s
H    0     0                    4500.0000000 1989.78672  55.8%     -    1s
H    0     0                    4321.0000000 1989.78672  54.0%     -    1s
     0     0 2014.45268    0  471 4321.00000 2014.45268  53.4%     -    1s
H    0     0                    3934.0000000 2014.45268  48.8%     -    1s
     0     0 2044.66100    0  500 3934.00000 2044.66100  48.0%     -    2s
     0     0 2045.07443    0  506 3934.00000 2045.07443  48.0%     -    2s
     0     0 2045.47136    0  507 3934.00000 2045.47136  48.0%     -    2s
H    0     0                    3849.0000000 2045.47136  46.9%     -    2s
     0     0 2068.37085    0  630 3849.00000 2068.37085  46.3%     -    2s
     0     0 2093.70431    0  650 3849.00000 2093.70431  45.6%     -    3s
     0     0 2094.37045    0  665 3849.00000 2094.37045  45.6%     -    3s
     0     0 2094.47499    0  675 3849.00000 2094.47499  45.6%     -    3s
     0     0 2094.52592    0  684 3849.00000 2094.52592  45.6%     -    3s
     0     0 2094.54988    0  683 3849.00000 2094.54988  45.6%     -    3s
     0     0 2107.58977    0  801 3849.00000 2107.58977  45.2%     -    4s
H    0     0                    3769.0000000 2107.58977  44.1%     -    5s
H    0     0                    3725.0000000 2107.58977  43.4%     -    5s
     0     0 2110.46402    0  821 3725.00000 2110.46402  43.3%     -    5s
     0     0 2113.64221    0  815 3725.00000 2113.64221  43.3%     -    6s
     0     0 2114.40258    0  798 3725.00000 2114.40258  43.2%     -    6s
     0     0 2114.45494    0  818 3725.00000 2114.45494  43.2%     -    6s
H    0     0                    3673.0000000 2114.45494  42.4%     -    8s
     0     0 2124.22060    0  965 3673.00000 2124.22060  42.2%     -    8s
H    0     0                    3665.0000000 2124.22060  42.0%     -   10s
     0     0 2128.01569    0  923 3665.00000 2128.01569  41.9%     -   10s
     0     0 2128.72370    0 1035 3665.00000 2128.72370  41.9%     -   10s
H    0     0                    3655.0000000 2128.72370  41.8%     -   11s
     0     0 2128.91028    0 1023 3655.00000 2128.91028  41.8%     -   11s
     0     0 2128.94606    0 1012 3655.00000 2128.94606  41.8%     -   11s
H    0     0                    3648.0000000 2128.94606  41.6%     -   13s
     0     0 2133.37898    0 1126 3648.00000 2133.37898  41.5%     -   13s
H    0     0                    3626.0000000 2133.37898  41.2%     -   13s
H    0     0                    3615.0000000 2133.37898  41.0%     -   14s
     0     0 2134.65701    0 1122 3615.00000 2134.65701  41.0%     -   14s
     0     0 2134.82561    0 1122 3615.00000 2134.82561  40.9%     -   15s
     0     0 2136.02973    0 1129 3615.00000 2136.02973  40.9%     -   16s
     0     0 2136.07534    0 1150 3615.00000 2136.07534  40.9%     -   16s
     0     0 2137.95685    0 1236 3615.00000 2137.95685  40.9%     -   18s
     0     0 2138.65256    0 1316 3615.00000 2138.65256  40.8%     -   19s
     0     0 2139.02219    0 1280 3615.00000 2139.02219  40.8%     -   20s
H    0     0                    3574.0000000 2139.02219  40.2%     -   21s
H    0     0                    3536.0000000 2139.02219  39.5%     -   21s
     0     0 2139.23090    0 1268 3536.00000 2139.23090  39.5%     -   21s
     0     0 2139.55960    0 1214 3536.00000 2139.55960  39.5%     -   21s
     0     0 2139.57781    0 1189 3536.00000 2139.57781  39.5%     -   21s
H    0     0                    3529.0000000 2139.57781  39.4%     -   22s
     0     0 2141.83936    0 1219 3529.00000 2141.83936  39.3%     -   24s
     0     0 2143.67787    0 1238 3529.00000 2143.67787  39.3%     -   25s
     0     0 2144.29819    0 1268 3529.00000 2144.29819  39.2%     -   26s
     0     0 2144.41026    0 1326 3529.00000 2144.41026  39.2%     -   27s
H    0     0                    3507.0000000 2144.41026  38.9%     -   30s
     0     0 2148.11733    0 1386 3507.00000 2148.11733  38.7%     -   30s
H    0     0                    3503.0000000 2148.11733  38.7%     -   31s
     0     0 2148.50634    0 1447 3503.00000 2148.50634  38.7%     -   32s
     0     0 2148.60252    0 1463 3503.00000 2148.60252  38.7%     -   33s
H    0     0                    3501.0000000 2148.60252  38.6%     -   37s
     0     0 2150.99295    0 1410 3501.00000 2150.99295  38.6%     -   37s
H    0     0                    3417.0000000 2150.99295  37.1%     -   47s
     0     0 2151.58043    0 1559 3417.00000 2151.58043  37.0%     -   51s
     0     0 2152.33525    0 1581 3417.00000 2152.33525  37.0%     -   52s
     0     0 2152.41078    0 1611 3417.00000 2152.41078  37.0%     -   53s
     0     0 2154.52415    0 1673 3417.00000 2154.52415  36.9%     -   57s
     0     0 2155.67136    0 1797 3417.00000 2155.67136  36.9%     -   60s

Cutting planes:
  Gomory: 60
  Cover: 1824
  Implied bound: 291
  Clique: 221
  MIR: 127
  StrongCG: 18
  Flow cover: 284
  GUB cover: 8
  Zero half: 124
  Network: 5
  Relax-and-lift: 4

Explored 1 nodes (74191 simplex iterations) in 60.04 seconds
Thread count was 12 (of 12 available processors)

Solution count 10: 3417 3501 3503 ... 3648

Time limit reached
Best objective 3.417000000000e+03, best bound 2.156000000000e+03, gap 36.9037%
